13 46 26 74 65 32 68 63 85 76 69 47 15 17 71 36 27 84 88 67 57 44 12 60 93 23 5 75 86 25 34 82 40 98 94 45 51 53 95 16 24 61 6 18 62 80 50 43 48 28 31 33 8 7 83 79 3 35 70 100 89 55 19 87 73 49 52 54 91 78 77 22 30 90 29 58 37 41 21 38 72 14 4 66 56 64 42 59 39 97 96 10 99 2 11 81 1 20 92 9 